FPU set for double precision

Propagation version: TRIE_V1

============================[ Problem Statistics ]=============================
|                                                                             |
|  Number of variables:           729                                         |
|  Number of clauses:            9418                                         |
|  Parse time:                   0.00 s                                       |
|  Simplification time:          0.00 s             